\* Problem: bestun_likan_third_draft *\

Minimize
 MaxAlag: + TheMaxAlag

Subject To
 Alagsmaeling(1,1): + 6 x(1,1,1) + 4 x(2,1,1) + 2 x(3,1,1) + 4 x(4,1,1)
 + 2 x(5,1,1) + 2 x(6,1,1) + 9 x(7,1,1) + x(8,1,1) + 5 x(9,1,1)
 + 7 x(10,1,1) + 4 x(11,1,1) + 3 x(12,1,1) + 3 x(13,1,1) + 8 x(14,1,1)
 + 3 x(15,1,1) - TheMaxAlag <= 8
 Alagsmaeling(1,2): + 6 x(1,1,2) + 4 x(2,1,2) + 2 x(3,1,2) + 4 x(4,1,2)
 + 2 x(5,1,2) + 2 x(6,1,2) + 9 x(7,1,2) + x(8,1,2) + 5 x(9,1,2)
 + 7 x(10,1,2) + 4 x(11,1,2) + 3 x(12,1,2) + 3 x(13,1,2) + 8 x(14,1,2)
 + 3 x(15,1,2) - TheMaxAlag <= 8
 Alagsmaeling(1,3): + 6 x(1,1,3) + 4 x(2,1,3) + 2 x(3,1,3) + 4 x(4,1,3)
 + 2 x(5,1,3) + 2 x(6,1,3) + 9 x(7,1,3) + x(8,1,3) + 5 x(9,1,3)
 + 7 x(10,1,3) + 4 x(11,1,3) + 3 x(12,1,3) + 3 x(13,1,3) + 8 x(14,1,3)
 + 3 x(15,1,3) - TheMaxAlag <= 8
 Alagsmaeling(1,4): + 6 x(1,1,4) + 4 x(2,1,4) + 2 x(3,1,4) + 4 x(4,1,4)
 + 2 x(5,1,4) + 2 x(6,1,4) + 9 x(7,1,4) + x(8,1,4) + 5 x(9,1,4)
 + 7 x(10,1,4) + 4 x(11,1,4) + 3 x(12,1,4) + 3 x(13,1,4) + 8 x(14,1,4)
 + 3 x(15,1,4) - TheMaxAlag <= 8
 Alagsmaeling(1,5): + 6 x(1,1,5) + 4 x(2,1,5) + 2 x(3,1,5) + 4 x(4,1,5)
 + 2 x(5,1,5) + 2 x(6,1,5) + 9 x(7,1,5) + x(8,1,5) + 5 x(9,1,5)
 + 7 x(10,1,5) + 4 x(11,1,5) + 3 x(12,1,5) + 3 x(13,1,5) + 8 x(14,1,5)
 + 3 x(15,1,5) - TheMaxAlag <= 8
 Alagsmaeling(2,1): + 6 x(1,2,1) + 4 x(2,2,1) + 2 x(3,2,1) + 4 x(4,2,1)
 + 2 x(5,2,1) + 2 x(6,2,1) + 9 x(7,2,1) + x(8,2,1) + 5 x(9,2,1)
 + 7 x(10,2,1) + 4 x(11,2,1) + 3 x(12,2,1) + 3 x(13,2,1) + 8 x(14,2,1)
 + 3 x(15,2,1) - TheMaxAlag <= 4
 Alagsmaeling(2,2): + 6 x(1,2,2) + 4 x(2,2,2) + 2 x(3,2,2) + 4 x(4,2,2)
 + 2 x(5,2,2) + 2 x(6,2,2) + 9 x(7,2,2) + x(8,2,2) + 5 x(9,2,2)
 + 7 x(10,2,2) + 4 x(11,2,2) + 3 x(12,2,2) + 3 x(13,2,2) + 8 x(14,2,2)
 + 3 x(15,2,2) - TheMaxAlag <= 4
 Alagsmaeling(2,3): + 6 x(1,2,3) + 4 x(2,2,3) + 2 x(3,2,3) + 4 x(4,2,3)
 + 2 x(5,2,3) + 2 x(6,2,3) + 9 x(7,2,3) + x(8,2,3) + 5 x(9,2,3)
 + 7 x(10,2,3) + 4 x(11,2,3) + 3 x(12,2,3) + 3 x(13,2,3) + 8 x(14,2,3)
 + 3 x(15,2,3) - TheMaxAlag <= 4
 Alagsmaeling(2,4): + 6 x(1,2,4) + 4 x(2,2,4) + 2 x(3,2,4) + 4 x(4,2,4)
 + 2 x(5,2,4) + 2 x(6,2,4) + 9 x(7,2,4) + x(8,2,4) + 5 x(9,2,4)
 + 7 x(10,2,4) + 4 x(11,2,4) + 3 x(12,2,4) + 3 x(13,2,4) + 8 x(14,2,4)
 + 3 x(15,2,4) - TheMaxAlag <= 4
 Alagsmaeling(2,5): + 6 x(1,2,5) + 4 x(2,2,5) + 2 x(3,2,5) + 4 x(4,2,5)
 + 2 x(5,2,5) + 2 x(6,2,5) + 9 x(7,2,5) + x(8,2,5) + 5 x(9,2,5)
 + 7 x(10,2,5) + 4 x(11,2,5) + 3 x(12,2,5) + 3 x(13,2,5) + 8 x(14,2,5)
 + 3 x(15,2,5) - TheMaxAlag <= 4
 Bannad(1,2,1): + x(1,2,1) = -0
 Bannad(1,2,2): + x(1,2,2) = -0
 Bannad(2,2,1): + x(2,2,1) = -0
 Bannad(2,2,2): + x(2,2,2) = -0
 UseAll(1): + x(1,1,1) + x(1,1,2) + x(1,1,3) + x(1,1,4) + x(1,1,5)
 + x(1,2,1) + x(1,2,2) + x(1,2,3) + x(1,2,4) + x(1,2,5) = 1
 UseAll(2): + x(2,1,1) + x(2,1,2) + x(2,1,3) + x(2,1,4) + x(2,1,5)
 + x(2,2,1) + x(2,2,2) + x(2,2,3) + x(2,2,4) + x(2,2,5) = 1
 UseAll(3): + x(3,1,1) + x(3,1,2) + x(3,1,3) + x(3,1,4) + x(3,1,5)
 + x(3,2,1) + x(3,2,2) + x(3,2,3) + x(3,2,4) + x(3,2,5) = 1
 UseAll(4): + x(4,1,1) + x(4,1,2) + x(4,1,3) + x(4,1,4) + x(4,1,5)
 + x(4,2,1) + x(4,2,2) + x(4,2,3) + x(4,2,4) + x(4,2,5) = 1
 UseAll(5): + x(5,1,1) + x(5,1,2) + x(5,1,3) + x(5,1,4) + x(5,1,5)
 + x(5,2,1) + x(5,2,2) + x(5,2,3) + x(5,2,4) + x(5,2,5) = 1
 UseAll(6): + x(6,1,1) + x(6,1,2) + x(6,1,3) + x(6,1,4) + x(6,1,5)
 + x(6,2,1) + x(6,2,2) + x(6,2,3) + x(6,2,4) + x(6,2,5) = 1
 UseAll(7): + x(7,1,1) + x(7,1,2) + x(7,1,3) + x(7,1,4) + x(7,1,5)
 + x(7,2,1) + x(7,2,2) + x(7,2,3) + x(7,2,4) + x(7,2,5) = 1
 UseAll(8): + x(8,1,1) + x(8,1,2) + x(8,1,3) + x(8,1,4) + x(8,1,5)
 + x(8,2,1) + x(8,2,2) + x(8,2,3) + x(8,2,4) + x(8,2,5) = 1
 UseAll(9): + x(9,1,1) + x(9,1,2) + x(9,1,3) + x(9,1,4) + x(9,1,5)
 + x(9,2,1) + x(9,2,2) + x(9,2,3) + x(9,2,4) + x(9,2,5) = 1
 UseAll(10): + x(10,1,1) + x(10,1,2) + x(10,1,3) + x(10,1,4) + x(10,1,5)
 + x(10,2,1) + x(10,2,2) + x(10,2,3) + x(10,2,4) + x(10,2,5) = 1
 UseAll(11): + x(11,1,1) + x(11,1,2) + x(11,1,3) + x(11,1,4) + x(11,1,5)
 + x(11,2,1) + x(11,2,2) + x(11,2,3) + x(11,2,4) + x(11,2,5) = 1
 UseAll(12): + x(12,1,1) + x(12,1,2) + x(12,1,3) + x(12,1,4) + x(12,1,5)
 + x(12,2,1) + x(12,2,2) + x(12,2,3) + x(12,2,4) + x(12,2,5) = 1
 UseAll(13): + x(13,1,1) + x(13,1,2) + x(13,1,3) + x(13,1,4) + x(13,1,5)
 + x(13,2,1) + x(13,2,2) + x(13,2,3) + x(13,2,4) + x(13,2,5) = 1
 UseAll(14): + x(14,1,1) + x(14,1,2) + x(14,1,3) + x(14,1,4) + x(14,1,5)
 + x(14,2,1) + x(14,2,2) + x(14,2,3) + x(14,2,4) + x(14,2,5) = 1
 UseAll(15): + x(15,1,1) + x(15,1,2) + x(15,1,3) + x(15,1,4) + x(15,1,5)
 + x(15,2,1) + x(15,2,2) + x(15,2,3) + x(15,2,4) + x(15,2,5) = 1

Bounds
 0 <= x(1,1,1) <= 1
 0 <= x(2,1,1) <= 1
 0 <= x(3,1,1) <= 1
 0 <= x(4,1,1) <= 1
 0 <= x(5,1,1) <= 1
 0 <= x(6,1,1) <= 1
 0 <= x(7,1,1) <= 1
 0 <= x(8,1,1) <= 1
 0 <= x(9,1,1) <= 1
 0 <= x(10,1,1) <= 1
 0 <= x(11,1,1) <= 1
 0 <= x(12,1,1) <= 1
 0 <= x(13,1,1) <= 1
 0 <= x(14,1,1) <= 1
 0 <= x(15,1,1) <= 1
 0 <= x(1,1,2) <= 1
 0 <= x(2,1,2) <= 1
 0 <= x(3,1,2) <= 1
 0 <= x(4,1,2) <= 1
 0 <= x(5,1,2) <= 1
 0 <= x(6,1,2) <= 1
 0 <= x(7,1,2) <= 1
 0 <= x(8,1,2) <= 1
 0 <= x(9,1,2) <= 1
 0 <= x(10,1,2) <= 1
 0 <= x(11,1,2) <= 1
 0 <= x(12,1,2) <= 1
 0 <= x(13,1,2) <= 1
 0 <= x(14,1,2) <= 1
 0 <= x(15,1,2) <= 1
 0 <= x(1,1,3) <= 1
 0 <= x(2,1,3) <= 1
 0 <= x(3,1,3) <= 1
 0 <= x(4,1,3) <= 1
 0 <= x(5,1,3) <= 1
 0 <= x(6,1,3) <= 1
 0 <= x(7,1,3) <= 1
 0 <= x(8,1,3) <= 1
 0 <= x(9,1,3) <= 1
 0 <= x(10,1,3) <= 1
 0 <= x(11,1,3) <= 1
 0 <= x(12,1,3) <= 1
 0 <= x(13,1,3) <= 1
 0 <= x(14,1,3) <= 1
 0 <= x(15,1,3) <= 1
 0 <= x(1,1,4) <= 1
 0 <= x(2,1,4) <= 1
 0 <= x(3,1,4) <= 1
 0 <= x(4,1,4) <= 1
 0 <= x(5,1,4) <= 1
 0 <= x(6,1,4) <= 1
 0 <= x(7,1,4) <= 1
 0 <= x(8,1,4) <= 1
 0 <= x(9,1,4) <= 1
 0 <= x(10,1,4) <= 1
 0 <= x(11,1,4) <= 1
 0 <= x(12,1,4) <= 1
 0 <= x(13,1,4) <= 1
 0 <= x(14,1,4) <= 1
 0 <= x(15,1,4) <= 1
 0 <= x(1,1,5) <= 1
 0 <= x(2,1,5) <= 1
 0 <= x(3,1,5) <= 1
 0 <= x(4,1,5) <= 1
 0 <= x(5,1,5) <= 1
 0 <= x(6,1,5) <= 1
 0 <= x(7,1,5) <= 1
 0 <= x(8,1,5) <= 1
 0 <= x(9,1,5) <= 1
 0 <= x(10,1,5) <= 1
 0 <= x(11,1,5) <= 1
 0 <= x(12,1,5) <= 1
 0 <= x(13,1,5) <= 1
 0 <= x(14,1,5) <= 1
 0 <= x(15,1,5) <= 1
 0 <= x(1,2,1) <= 1
 0 <= x(2,2,1) <= 1
 0 <= x(3,2,1) <= 1
 0 <= x(4,2,1) <= 1
 0 <= x(5,2,1) <= 1
 0 <= x(6,2,1) <= 1
 0 <= x(7,2,1) <= 1
 0 <= x(8,2,1) <= 1
 0 <= x(9,2,1) <= 1
 0 <= x(10,2,1) <= 1
 0 <= x(11,2,1) <= 1
 0 <= x(12,2,1) <= 1
 0 <= x(13,2,1) <= 1
 0 <= x(14,2,1) <= 1
 0 <= x(15,2,1) <= 1
 0 <= x(1,2,2) <= 1
 0 <= x(2,2,2) <= 1
 0 <= x(3,2,2) <= 1
 0 <= x(4,2,2) <= 1
 0 <= x(5,2,2) <= 1
 0 <= x(6,2,2) <= 1
 0 <= x(7,2,2) <= 1
 0 <= x(8,2,2) <= 1
 0 <= x(9,2,2) <= 1
 0 <= x(10,2,2) <= 1
 0 <= x(11,2,2) <= 1
 0 <= x(12,2,2) <= 1
 0 <= x(13,2,2) <= 1
 0 <= x(14,2,2) <= 1
 0 <= x(15,2,2) <= 1
 0 <= x(1,2,3) <= 1
 0 <= x(2,2,3) <= 1
 0 <= x(3,2,3) <= 1
 0 <= x(4,2,3) <= 1
 0 <= x(5,2,3) <= 1
 0 <= x(6,2,3) <= 1
 0 <= x(7,2,3) <= 1
 0 <= x(8,2,3) <= 1
 0 <= x(9,2,3) <= 1
 0 <= x(10,2,3) <= 1
 0 <= x(11,2,3) <= 1
 0 <= x(12,2,3) <= 1
 0 <= x(13,2,3) <= 1
 0 <= x(14,2,3) <= 1
 0 <= x(15,2,3) <= 1
 0 <= x(1,2,4) <= 1
 0 <= x(2,2,4) <= 1
 0 <= x(3,2,4) <= 1
 0 <= x(4,2,4) <= 1
 0 <= x(5,2,4) <= 1
 0 <= x(6,2,4) <= 1
 0 <= x(7,2,4) <= 1
 0 <= x(8,2,4) <= 1
 0 <= x(9,2,4) <= 1
 0 <= x(10,2,4) <= 1
 0 <= x(11,2,4) <= 1
 0 <= x(12,2,4) <= 1
 0 <= x(13,2,4) <= 1
 0 <= x(14,2,4) <= 1
 0 <= x(15,2,4) <= 1
 0 <= x(1,2,5) <= 1
 0 <= x(2,2,5) <= 1
 0 <= x(3,2,5) <= 1
 0 <= x(4,2,5) <= 1
 0 <= x(5,2,5) <= 1
 0 <= x(6,2,5) <= 1
 0 <= x(7,2,5) <= 1
 0 <= x(8,2,5) <= 1
 0 <= x(9,2,5) <= 1
 0 <= x(10,2,5) <= 1
 0 <= x(11,2,5) <= 1
 0 <= x(12,2,5) <= 1
 0 <= x(13,2,5) <= 1
 0 <= x(14,2,5) <= 1
 0 <= x(15,2,5) <= 1

Generals
 x(1,1,1)
 x(2,1,1)
 x(3,1,1)
 x(4,1,1)
 x(5,1,1)
 x(6,1,1)
 x(7,1,1)
 x(8,1,1)
 x(9,1,1)
 x(10,1,1)
 x(11,1,1)
 x(12,1,1)
 x(13,1,1)
 x(14,1,1)
 x(15,1,1)
 x(1,1,2)
 x(2,1,2)
 x(3,1,2)
 x(4,1,2)
 x(5,1,2)
 x(6,1,2)
 x(7,1,2)
 x(8,1,2)
 x(9,1,2)
 x(10,1,2)
 x(11,1,2)
 x(12,1,2)
 x(13,1,2)
 x(14,1,2)
 x(15,1,2)
 x(1,1,3)
 x(2,1,3)
 x(3,1,3)
 x(4,1,3)
 x(5,1,3)
 x(6,1,3)
 x(7,1,3)
 x(8,1,3)
 x(9,1,3)
 x(10,1,3)
 x(11,1,3)
 x(12,1,3)
 x(13,1,3)
 x(14,1,3)
 x(15,1,3)
 x(1,1,4)
 x(2,1,4)
 x(3,1,4)
 x(4,1,4)
 x(5,1,4)
 x(6,1,4)
 x(7,1,4)
 x(8,1,4)
 x(9,1,4)
 x(10,1,4)
 x(11,1,4)
 x(12,1,4)
 x(13,1,4)
 x(14,1,4)
 x(15,1,4)
 x(1,1,5)
 x(2,1,5)
 x(3,1,5)
 x(4,1,5)
 x(5,1,5)
 x(6,1,5)
 x(7,1,5)
 x(8,1,5)
 x(9,1,5)
 x(10,1,5)
 x(11,1,5)
 x(12,1,5)
 x(13,1,5)
 x(14,1,5)
 x(15,1,5)
 x(1,2,1)
 x(2,2,1)
 x(3,2,1)
 x(4,2,1)
 x(5,2,1)
 x(6,2,1)
 x(7,2,1)
 x(8,2,1)
 x(9,2,1)
 x(10,2,1)
 x(11,2,1)
 x(12,2,1)
 x(13,2,1)
 x(14,2,1)
 x(15,2,1)
 x(1,2,2)
 x(2,2,2)
 x(3,2,2)
 x(4,2,2)
 x(5,2,2)
 x(6,2,2)
 x(7,2,2)
 x(8,2,2)
 x(9,2,2)
 x(10,2,2)
 x(11,2,2)
 x(12,2,2)
 x(13,2,2)
 x(14,2,2)
 x(15,2,2)
 x(1,2,3)
 x(2,2,3)
 x(3,2,3)
 x(4,2,3)
 x(5,2,3)
 x(6,2,3)
 x(7,2,3)
 x(8,2,3)
 x(9,2,3)
 x(10,2,3)
 x(11,2,3)
 x(12,2,3)
 x(13,2,3)
 x(14,2,3)
 x(15,2,3)
 x(1,2,4)
 x(2,2,4)
 x(3,2,4)
 x(4,2,4)
 x(5,2,4)
 x(6,2,4)
 x(7,2,4)
 x(8,2,4)
 x(9,2,4)
 x(10,2,4)
 x(11,2,4)
 x(12,2,4)
 x(13,2,4)
 x(14,2,4)
 x(15,2,4)
 x(1,2,5)
 x(2,2,5)
 x(3,2,5)
 x(4,2,5)
 x(5,2,5)
 x(6,2,5)
 x(7,2,5)
 x(8,2,5)
 x(9,2,5)
 x(10,2,5)
 x(11,2,5)
 x(12,2,5)
 x(13,2,5)
 x(14,2,5)
 x(15,2,5)

End
